c --- [ banner ] -------------------------------------------------------------
c 
c CaDiCaL Radically Simplified CDCL SAT Solver
c Copyright (c) 2016-2021 A. Biere, M. Fleury, N. Froleyks
c 
c Version 1.5.2 a5f15211db36c3956764e18194dd5bd63bf3b5e6
c g++ (GCC) 9.3.0 -Wall -Wextra -O3 -DNDEBUG
c Fri Oct 21 01:27:37 EDT 2022 Linux gra-login3 3.10.0-1160.66.1.el7.x86_64 x86_64
c 
c --- [ limit ] --------------------------------------------------------------
c 
c setting conflict limit to 200000 conflicts (due to '200000')
c 
c --- [ parsing input ] ------------------------------------------------------
c 
c reading DIMACS file from '33.cubes3540.adj'
c opening file to read '33.cubes3540.adj'
c found 'p cnf 6160 1595479' header
c parsed 1595479 clauses in 20.23 seconds process time
c closing file '33.cubes3540.adj'
c after reading 1457566805 bytes 1390.0 MB
c 
c --- [ options ] ------------------------------------------------------------
c 
c all options are set to their default value
c 
c --- [ solving ] ------------------------------------------------------------
c 
c time measured in process time since initialization
c 
c  seconds    reductions  redundant   irredundant
c          MB     restarts       trail       variables
c            level   conflicts       glue         remaining
c 
c * 20.23 1388  0 0   0    0    0  0% 0 1595422 2297 37%
c { 21.52 1446  0 0   0    0    0  0% 0 1595422 2297 37%
c i 26.23 1521 294 0  18  100   96 28% 9 1595422 2293 37%
c i 29.08 1542 171 0  45  206  188 27% 18 1595422 2288 37%
c i 30.27 1547 161 0  54  242  223 27% 19 1595422 2287 37%
c i 30.74 1548 160 0  57  257  235 27% 23 1595422 2286 37%
c i 31.12 1549 154 0  63  277  248 27% 24 1595422 2285 37%
c - 35.38 1520 143 1  69  301  262 27% 23 595263 2285 37%
c i 35.65 1470 134 1  69  325  280 27% 22 595263 2284 37%
c i 36.61 1472 121 1  75  414  361 27% 22 595263 2283 37%
c i 36.62 1472 120 1  75  421  367 27% 22 595263 2282 37%
c i 36.66 1472 117 1  75  446  390 27% 21 595263 2281 37%
c i 36.73 1472 116 1  75  451  394 27% 21 595263 2280 37%
c i 36.99 1473 112 1  75  472  409 27% 21 595263 2279 37%
c i 37.16 1473 111 1  75  482  418 27% 21 595263 2278 37%
c i 38.11 1474 106 1  81  541  467 28% 22 595263 2277 37%
c i 38.37 1474 105 1  83  551  476 28% 23 595263 2276 37%
c i 39.79 1476 103 1 101  618  539 27% 24 595263 2275 37%
c i 39.96 1476 103 1 103  622  542 27% 24 595263 2274 37%
c i 40.72 1476 101 1 111  666  585 27% 24 595263 2273 37%
c 
c  seconds     reductions  redundant   irredundant
c          MB      restarts       trail       variables
c             level   conflicts       glue         remaining
c 
c i 41.03 1477 102 1 113  685  600 27% 25 595263 2272 37%
c i 41.20 1477 102 1 115  693  607 27% 25 595263 2271 37%
c i 45.08 1480 103 1 149  840  727 27% 28 595263 2270 37%
c i 47.48 1481 103 1 173  942  816 27% 29 595263 2266 37%
c i 48.69 1481 103 1 186  985  854 27% 30 595263 2263 37%
c } 49.01 1481 102 1 189 1000  869 27% 30 595263 2263 37%
c [ 49.01 1481  0 1 189 1000  869  0% 0 595263 2263 37%
c O 49.14 1481 23 1 189 1003  872 22% 3 595263 2263 37%
c i 49.82 1482 37 1 189 1088  948 31% 23 595263 2262 37%
c i 50.17 1482 47 1 189 1227 1052 31% 36 595263 2261 37%
c i 50.24 1482 43 1 189 1291 1098 31% 33 595263 2260 37%
c - 51.37 1671 44 2 189 1368 1066 30% 33 534047 2260 37%
c - 53.13 1672 34 3 190 2922 1791 31% 27 534047 2260 37%
c ] 53.22 1672 33 3 190 3000 1846 31% 27 534047 2260 37%
c { 53.22 1672 102 3 190 3000 1846 27% 30 534047 2260 37%
c F 53.66 1612 103 3 192 3006 1851 36% 30 534047 2260 37%
c i 54.18 1612 84 3 193 3318 2106 51% 28 534047 2259 37%
c i 54.61 1612 62 3 193 4145 2743 50% 25 534047 2258 37%
c i 54.77 1612 59 3 196 4349 2903 50% 25 534047 2241 36%
c - 56.50 1607 52 4 201 4995 2392 49% 23 533824 2240 36%
c 
c  seconds    reductions  redundant   irredundant
c          MB     restarts       trail       variables
c            level   conflicts       glue         remaining
c 
c d 57.25 1607 52 4 201 5002 2398 49% 23 533814 2235 36%
c 2 57.36 1607 52 4 201 5002 3211 49% 23 533814 2235 36%
c p 60.77 1607 52 4 201 5002 5589 49% 23 533814 2194 36%
c d 61.56 1607 52 4 201 5002 5477 49% 23 500892 2192 36%
c # 65.30 1607 50 4 296 6009 6291 49% 24 500892 2192 36%
c } 68.78 1607 49 4 417 7002 7101 48% 25 500892 2192 36%
c [ 68.78 1607 33 4 417 7002 7101 84% 27 500892 2192 36%
c - 69.81 1587 33 5 418 7586 3461 76% 27 500892 2192 36%
c I 70.84 1587 31 5 419 10012 5103 63% 26 500892 2192 36%
c - 72.30 1587 29 6 420 10647 3703 61% 24 500892 2192 36%
c - 76.90 1383 27 7 422 14219 4331 56% 22 500892 2192 36%
c ] 78.20 1383 26 7 422 15003 4843 56% 22 500892 2192 36%
c { 78.20 1383 49 7 422 15003 4843 48% 25 500892 2192 36%
c 2 78.31 1383 49 7 423 15003 5859 48% 25 500892 2192 36%
c p 81.49 1383 49 7 423 15003 8405 48% 25 500892 2192 36%
c B 81.95 1383 49 7 426 15015 8417 48% 25 500892 2192 36%
c - 94.40 1588 43 8 599 18298 5734 49% 24 500892 2192 36%
c s 94.78 1588 42 8 599 18885 6016 49% 24 498474 2192 36%
c v 100.98 1588 42 8 599 18885 6016 49% 24 498462 2192 36%
c t 101.13 1588 42 8 599 18885 6003 49% 24 498455 2192 36%
c 
c  seconds     reductions   redundant   irredundant
c           MB     restarts        trail       variables
c             level    conflicts       glue        remaining
c 
c e 103.04 1589 42 8 599 18885 5433 49% 24 496390 988 16%
c s 103.19 1589 42 8 599 18885 5433 49% 24 489829 988 16%
c W 108.57 1384 38 8 601 21017 6857 64% 23 489829 988 16%
c - 118.54 1384 39 9 789 22887 6174 64% 23 489829 988 16%
c - 128.72 1384 32 10 789 27957 6656 63% 20 489829 988 16%
c F 128.90 1384 32 10 789 28021 6696 63% 20 489829 988 16%
c p 147.59 1384 35 10 1133 30005 10817 63% 22 489829 988 16%
c } 157.03 1384 36 10 1323 31007 11646 63% 22 489829 988 16%
c [ 157.03 1384 26 10 1323 31007 11646 128% 22 489829 988 16%
c - 159.59 1384 24 11 1324 33535 8046 114% 21 489829 988 16%
c B 162.49 1384 24 11 1326 36022 9653 106% 20 489829 988 16%
c - 164.72 1384 30 12 1328 39620 8679 97% 25 489829 988 16%
c W 169.25 1384 36 12 1330 45023 12964 90% 30 489829 988 16%
c - 170.29 1384 37 13 1331 46212 9594 89% 31 489829 988 16%
c p 174.60 1384 38 13 1331 50008 15307 85% 33 489829 988 16%
c - 176.81 1384 38 14 1331 53310 10556 83% 33 489829 988 16%
c O 177.50 1384 38 14 1332 55028 11956 82% 33 489829 988 16%
c - 180.00 1384 36 15 1337 60918 10653 79% 31 489829 988 16%
c ] 180.86 1384 36 15 1338 63007 12160 79% 31 489829 988 16%
c { 180.86 1384 36 15 1338 63007 12160 63% 22 489829 988 16%
c 
c  seconds     reductions      redundant   irredundant
c           MB      restarts          trail       variables
c             level      conflicts        glue        remaining
c 
c B 188.74 1384 35 15 1470 66031 14494 63% 22 489829 988 16%
c - 206.46 1384 36 16 1857 69030 11487 64% 23 489829 988 16%
c p 215.17 1384 33 16 1916 75008 18428 64% 22 489829 988 16%
c - 218.73 1384 32 17 1921 77650 11450 64% 21 489829 988 16%
c W 219.52 1384 31 17 1922 78032 11686 64% 21 489829 988 16%
c - 237.74 1384 30 18 2309 86777 12172 65% 21 489829 988 16%
c } 243.24 1384 30 18 2462 88366 13520 65% 21 489829 988 16%
c 1 243.24 1384 30 18 2462 88366 13520 65% 21 489829 988 16%
c 
c --- [ writing output ] -----------------------------------------------------
c 
c writing simplified CNF to DIMACS file 'simp/33.cubes3540.adj.simp1'
c * 243.24 1384 30 18 2462 88366 13520 65% 21 489829 988 16%
c opening file to write 'simp/33.cubes3540.adj.simp1'
c writing 'p cnf 6160 489829' header
c closing file 'simp/33.cubes3540.adj.simp1'
c after writing 235573953 bytes 224.7 MB
c wrote 489829 clauses in 1.82 seconds process time
c 
c --- [ writing extension ] --------------------------------------------------
c 
c writing extension stack to 'simp/33.cubes3540.adj.ext1'
c opening file to write 'simp/33.cubes3540.adj.ext1'
c closing file 'simp/33.cubes3540.adj.ext1'
c after writing 82751 bytes 0.1 MB
c wrote 3678 witnesses in 0.00 seconds process time
c 
c --- [ result ] -------------------------------------------------------------
c 
s SATISFIABLE
c 
c --- [ run-time profiling ] -------------------------------------------------
c 
c process time taken by individual solving procedures
c (percentage relative to process time for solving)
c 
c       196.19   87.97% search
c       158.62   71.13% unstable
c        33.49   15.02% stable
c        26.82   12.03% simplify
c        20.23    9.07% parse
c        14.35    6.43% probe
c         6.29    2.82% vivify
c         3.61    1.62% elim
c         2.79    1.25% walk
c         1.29    0.58% lucky
c         0.34    0.15% ternary
c         0.30    0.13% subsume
c   =================================
c       223.01   91.00% solve
c 
c last line shows process time for solving
c (percentage relative to total process time)
c 
c --- [ statistics ] ---------------------------------------------------------
c 
c chronological:             16870        19.09 %  of conflicts
c conflicts:                 88366       396.25    per second
c decisions:                245540      1101.04    per second
c eliminated:                 1204        19.55 %  of all variables
c fixed:                       817        13.26 %  of all variables
c learned:                   86196        97.54 %  per conflict
c learned_lits:           15616342       100.00 %  learned literals
c minimized:                     0         0.00 %  learned literals
c shrunken:                8480796        54.31 %  learned literals
c minishrunken:            1633316        10.46 %  learned literals
c propagations:            7793141         0.03 M  per second
c reduced:                   50529        57.18 %  per conflict
c rephased:                     12      7363.83    interval
c restarts:                   2462        35.89    interval
c stabilizing:                   3        47.53 %  of conflicts
c substituted:                   7         0.11 %  of all variables
c subsumed:                  30780         0.89 %  of all clauses
c strengthened:               3003         0.09 %  of all clauses
c ternary:                    3787         0.62 %  of resolved
c vivified:                     37         0.00 %  of all clauses
c walked:                        3     29455.33    interval
c weakened:                   2861         3.16    average size
c 
c seconds are measured in process time for solving
c 
c --- [ resources ] ----------------------------------------------------------
c 
c total process time since initialization:       245.07    seconds
c total real time since initialization:          247.10    seconds
c maximum resident set size of process:         1900.84    MB
c 
c --- [ shutting down ] ------------------------------------------------------
c 
c exit 10
WARNING! DIMACS header mismatch: wrong number of variables.
============================[ Problem Statistics ]=============================
|                                                                             |
|  Number of variables:          4043                                         |
|  Number of clauses:          489831                                         |
|  Parse time:                   3.19 s                                       |
|  Simplification time:          0.06 s                                       |
|                                                                             |
============================[ Search Statistics ]====================================================
| Conflicts |          ORIGINAL         |          LEARNT          | Num Sols |      SUBGRAPHS      |
|           |    Vars  Clauses Literals |    Limit  Clauses Lit/Cl |          | Canonical Noncanon. |
=====================================================================================================
|       100 |    3951   489831 50753373 |     2000      100    220 |        0 |        12         0 |
|       257 |    3951   489838 50753700 |     2000      257    145 |        0 |        22         7 |
|       493 |    3951   489849 50753891 |     2000      493    115 |        0 |        40        18 |
|      1309 |    3951   490328 50761078 |     2000     1309     70 |        0 |       137       497 |
|      1834 |    3951   490347 50761872 |     2000     1834     79 |        0 |       150       516 |
|      2641 |    3951   490395 50762750 |     3600     1641     57 |        0 |       185       564 |
|      3795 |    3951   490410 50763083 |     3600     2795     78 |        0 |       196       579 |
|      5929 |    3951   490836 50772880 |     5000     3129     49 |        0 |       293      1005 |
|      8702 |    3951   491047 50777403 |     6317     3419     42 |        0 |       326      1216 |
|     13086 |    3951   491587 50787226 |     7561     4647     43 |        0 |       455      1756 |
|     19360 |    3951   492095 50796788 |     8787     7147     63 |        0 |       652      2264 |
|     29998 |    3951   494084 50839399 |    11207     8405     37 |        0 |      1067      4253 |
|     44156 |    3951   495268 50859440 |    13612    10768     57 |        0 |      1347      5437 |
|     65715 |    3951   497366 50899195 |    17222    10137     34 |        0 |      1978      7535 |
|     99490 |    3951   501949 50988164 |    20817    16307     47 |        0 |      2572     12118 |
|    147459 |    3951   506129 51070488 |    25612    19071     41 |        0 |      4221     16298 |
|    214983 |    3951   507969 51104128 |    31620    16603     23 |        0 |      4748     18138 |
|    314059 |    3951   508519 51115447 |    37612    30671     55 |        0 |      4959     18688 |
|    462260 |    3951   508931 51128311 |    46016    34676     61 |        0 |      5141     19100 |
|    684560 |    3951   509548 51147210 |    56817    28377     28 |        0 |      5375     19717 |
|   1018604 |    3951   511067 51187732 |    68821    51425     61 |        0 |      5795     21236 |
|   1520028 |    3951   513703 51246177 |    84422    58850     51 |        0 |      6719     23872 |
|   2273157 |    3951   518650 51369576 |   103626    64783     47 |        0 |      7938     28819 |
|   3427145 |    3951   550364 52120025 |   127610    68755     32 |        0 |     15990     60533 |
|   5134152 |    3951   573960 52659990 |   156428    78980     26 |        0 |     22617     84129 |
|   7689621 |    3951   604313 53392008 |   191232   123053     44 |        1 |     30309    114481 |
|  11848075 |    3951   975092 62797536 |   236829   226904     63 |        1 |    143900    485260 |
|  17920698 |    3951  1366203 71118989 |   292034   232132     50 |        1 |    233590    876371 |
|  27241642 |    3951  2164878 85929689 |   360413   273455     30 |        4 |    414270   1675043 |
=====================================================================================================
Number of solutions   : 6
Canonical subgraphs   : 516824         (7 /sec)
          order  3    : 1              (166667 /sec)
          order  4    : 1              (500000 /sec)
          order  5    : 1              (200000 /sec)
          order  6    : 1              (52632 /sec)
          order  7    : 1              (8696 /sec)
          order  8    : 1              (1007 /sec)
          order  9    : 2              (150 /sec)
          order 10    : 7              (37 /sec)
          order 11    : 36             (12 /sec)
          order 12    : 297            (8 /sec)
          order 13    : 3773           (8 /sec)
          order 14    : 16712          (7 /sec)
          order 15    : 118779         (9 /sec)
          order 16    : 349320         (7 /sec)
          order 17    : 21493          (5 /sec)
          order 18    : 5364           (4 /sec)
          order 19    : 972            (4 /sec)
          order 20    : 39             (4 /sec)
          order 21    : 18             (5 /sec)
          order 22    : 6              (0 /sec)
Noncanonical subgraphs: 2052782        (68 /sec)
          order  3    : 0              (-nan /sec)
          order  4    : 0              (-nan /sec)
          order  5    : 0              (-nan /sec)
          order  6    : 0              (-nan /sec)
          order  7    : 0              (-nan /sec)
          order  8    : 0              (-nan /sec)
          order  9    : 0              (-nan /sec)
          order 10    : 0              (-nan /sec)
          order 11    : 0              (-nan /sec)
          order 12    : 0              (-nan /sec)
          order 13    : 8565           (5932 /sec)
          order 14    : 93517          (911 /sec)
          order 15    : 412094         (453 /sec)
          order 16    : 223123         (340 /sec)
          order 17    : 1304927        (47 /sec)
          order 18    : 10149          (28 /sec)
          order 19    : 395            (21 /sec)
          order 20    : 0              (-nan /sec)
          order 21    : 0              (-nan /sec)
Canonicity checking   : 69083.5 s
Noncanonicity checking: 30037.8 s
Total canonicity time : 99121.3 s
database reductions   : 338
restarts              : 49148
conflicts             : 34854560       (304 /sec)
decisions             : 46034219       (0.00 % random) (402 /sec)
propagations          : 1878548659     (16404 /sec)
conflict literals     : 3538266582     (55.74 % deleted)
actual reward         : 0.224113
Memory used           : 1322.00 MB
CPU time              : 114519 s

UNSATISFIABLE
